PROBLEM NAME: eil51_n16
KNAPSACK DATA TYPE: uncorrelated
DIMENSION: 16
NUMBER OF ITEMS: 15
CAPACITY OF KNAPSACK: 955
MIN SPEED: 0.1
MAX SPEED: 1
RENTING RATIO: 3.39
EDGE_WEIGHT_TYPE: CEIL_2D
NODE_COORD_SECTION	(INDEX, X, Y):
1	49	49
2	20	26
3	31	32
4	5	25
5	8	52
6	30	48
7	58	48
8	37	69
9	38	46
10	46	10
11	10	17
12	21	10
13	32	39
14	25	55
15	56	37
16	30	40
ITEMS SECTION	(INDEX, PROFIT, WEIGHT, ASSIGNED NODE NUMBER):
1	992	421	8
2	815	845	14
3	791	9	5
4	667	122	6
5	649	322	9
6	598	94	16
7	506	326	13
8	457	43	3
9	446	955	2
10	422	252	4
11	416	248	11
12	359	901	12
13	237	795	10
14	94	485	15
15	7	738	7
